coords = array2d(1..23, 1..2, [166, 341, 151, 912, 985, 569, 402, 214, 631,
    347, 805, 714, 691, 974, 44, 164, 601, 528, 866, 730, 546, 792,
    258, 873, 147, 156, 115, 674, 616, 699, 643, 102, 261, 875, 287,
    777, 246, 88, 294, 400, 405, 308, 774, 835, 713, 224]);

n = 23;

